c ind 1 21 22 23 24 25 26 27 28 29 30 31 32 33 34 35 36 0
p cnf 63 155
1 -3 0
2 -3 0
-1 -2 3 0
1 -5 0
2 -5 0
4 -5 0
-1 -2 -4 5 0
1 -7 0
2 -7 0
4 -7 0
6 -7 0
-1 -2 -4 -6 7 0
1 -9 0
2 -9 0
4 -9 0
6 -9 0
8 -9 0
-1 -2 -4 -6 -8 9 0
1 -11 0
2 -11 0
4 -11 0
6 -11 0
8 -11 0
10 -11 0
-1 -2 -4 -6 -8 -10 11 0
1 -13 0
2 -13 0
4 -13 0
6 -13 0
8 -13 0
10 -13 0
12 -13 0
-1 -2 -4 -6 -8 -10 -12 13 0
1 -15 0
2 -15 0
4 -15 0
6 -15 0
8 -15 0
10 -15 0
12 -15 0
14 -15 0
-1 -2 -4 -6 -8 -10 -12 -14 15 0
1 -16 0
2 -16 0
4 -16 0
6 -16 0
8 -16 0
10 -16 0
12 -16 0
-14 -16 0
-1 -2 -4 -6 -8 -10 -12 14 16 0
1 -17 0
2 -17 0
4 -17 0
6 -17 0
8 -17 0
10 -17 0
-12 -17 0
-1 -2 -4 -6 -8 -10 12 17 0
1 -18 0
2 -18 0
4 -18 0
6 -18 0
8 -18 0
-10 -18 0
-1 -2 -4 -6 -8 10 18 0
1 -19 0
2 -19 0
4 -19 0
6 -19 0
-8 -19 0
-1 -2 -4 -6 8 19 0
20 0
-1 21 -37 0
1 -21 -37 0
-1 -21 37 0
1 21 37 0
-37 0
-2 26 -38 0
2 -26 -38 0
-2 -26 38 0
2 26 38 0
-38 0
-4 31 -39 0
4 -31 -39 0
-4 -31 39 0
4 31 39 0
-39 0
-6 36 -40 0
6 -36 -40 0
-6 -36 40 0
6 36 40 0
-40 0
-36 41 0
36 -41 0
-36 -42 0
36 -42 0
36 43 0
-42 43 0
-36 42 -43 0
-8 -43 -44 0
8 43 -44 0
-8 43 44 0
8 -43 44 0
-44 0
-26 45 0
26 -45 0
-26 -46 0
26 -46 0
26 47 0
-46 47 0
-26 46 -47 0
-10 -47 -48 0
10 47 -48 0
-10 47 48 0
10 -47 48 0
-48 0
-21 49 0
21 -49 0
-21 -50 0
21 -50 0
21 51 0
-50 51 0
-21 50 -51 0
-12 -51 -52 0
12 51 -52 0
-12 51 52 0
12 -51 52 0
-52 0
-31 53 0
31 -53 0
-31 -54 0
31 -54 0
31 55 0
-54 55 0
-31 54 -55 0
-14 -55 -56 0
14 55 -56 0
-14 55 56 0
14 -55 56 0
-56 0
16 17 18 19 0
-57 -59 -61 0
57 59 -61 0
-57 59 61 0
57 -59 61 0
-58 -60 -62 0
58 60 -62 0
-58 60 62 0
58 -60 62 0
-61 -63 0
-62 -63 0
61 62 63 0
-20 63 0
20 -63 0
c __CPROVER_malloc_is_new_array#1 FALSE
c goto_symex::\guard#1 1
c goto_symex::\guard#2 2
c goto_symex::\guard#3 4
c goto_symex::\guard#4 6
c goto_symex::\guard#5 8
c goto_symex::\guard#6 10
c goto_symex::\guard#7 12
c goto_symex::\guard#8 14
c __CPROVER_thread_id!0#1 FALSE FALSE FALSE FALSE FALSE FALSE FALSE FALSE FALSE FALSE FALSE FALSE FALSE FALSE FALSE FALSE FALSE FALSE FALSE FALSE FALSE FALSE FALSE FALSE FALSE FALSE FALSE FALSE FALSE FALSE FALSE FALSE FALSE FALSE FALSE FALSE FALSE FALSE FALSE FALSE FALSE FALSE FALSE FALSE FALSE FALSE FALSE FALSE FALSE FALSE FALSE FALSE FALSE FALSE FALSE FALSE FALSE FALSE FALSE FALSE FALSE FALSE FALSE FALSE
c __CPROVER_rounding_mode!0#1 FALSE FALSE FALSE FALSE FALSE FALSE FALSE FALSE FALSE FALSE FALSE FALSE FALSE FALSE FALSE FALSE FALSE FALSE FALSE FALSE FALSE FALSE FALSE FALSE FALSE FALSE FALSE FALSE FALSE FALSE FALSE FALSE
c __CPROVER_pipe_count#1 FALSE FALSE FALSE FALSE FALSE FALSE FALSE FALSE FALSE FALSE FALSE FALSE FALSE FALSE FALSE FALSE FALSE FALSE FALSE FALSE FALSE FALSE FALSE FALSE FALSE FALSE FALSE FALSE FALSE FALSE FALSE FALSE
c __CPROVER_deallocated#1 FALSE FALSE FALSE FALSE FALSE FALSE FALSE FALSE FALSE FALSE FALSE FALSE FALSE FALSE FALSE FALSE FALSE FALSE FALSE FALSE FALSE FALSE FALSE FALSE FALSE FALSE FALSE FALSE FALSE FALSE FALSE FALSE FALSE FALSE FALSE FALSE FALSE FALSE FALSE FALSE FALSE FALSE FALSE FALSE FALSE FALSE FALSE FALSE FALSE FALSE FALSE FALSE FALSE FALSE FALSE FALSE FALSE FALSE FALSE FALSE FALSE FALSE FALSE FALSE
c check::1::x!0@1#1 21 22 23 24 25 26 27 28 29 30 31 32 33 34 35 36
c __CPROVER_dead_object#1 FALSE FALSE FALSE FALSE FALSE FALSE FALSE FALSE FALSE FALSE FALSE FALSE FALSE FALSE FALSE FALSE FALSE FALSE FALSE FALSE FALSE FALSE FALSE FALSE FALSE FALSE FALSE FALSE FALSE FALSE FALSE FALSE FALSE FALSE FALSE FALSE FALSE FALSE FALSE FALSE FALSE FALSE FALSE FALSE FALSE FALSE FALSE FALSE FALSE FALSE FALSE FALSE FALSE FALSE FALSE FALSE FALSE FALSE FALSE FALSE FALSE FALSE FALSE FALSE
c __CPROVER_next_thread_id#1 FALSE FALSE FALSE FALSE FALSE FALSE FALSE FALSE FALSE FALSE FALSE FALSE FALSE FALSE FALSE FALSE FALSE FALSE FALSE FALSE FALSE FALSE FALSE FALSE FALSE FALSE FALSE FALSE FALSE FALSE FALSE FALSE FALSE FALSE FALSE FALSE FALSE FALSE FALSE FALSE FALSE FALSE FALSE FALSE FALSE FALSE FALSE FALSE FALSE FALSE FALSE FALSE FALSE FALSE FALSE FALSE FALSE FALSE FALSE FALSE FALSE FALSE FALSE FALSE
c __CPROVER_malloc_object#1 FALSE FALSE FALSE FALSE FALSE FALSE FALSE FALSE FALSE FALSE FALSE FALSE FALSE FALSE FALSE FALSE FALSE FALSE FALSE FALSE FALSE FALSE FALSE FALSE FALSE FALSE FALSE FALSE FALSE FALSE FALSE FALSE FALSE FALSE FALSE FALSE FALSE FALSE FALSE FALSE FALSE FALSE FALSE FALSE FALSE FALSE FALSE FALSE FALSE FALSE FALSE FALSE FALSE FALSE FALSE FALSE FALSE FALSE FALSE FALSE FALSE FALSE FALSE FALSE
c __CPROVER_malloc_size#1 FALSE FALSE FALSE FALSE FALSE FALSE FALSE FALSE FALSE FALSE FALSE FALSE FALSE FALSE FALSE FALSE FALSE FALSE FALSE FALSE FALSE FALSE FALSE FALSE FALSE FALSE FALSE FALSE FALSE FALSE FALSE FALSE FALSE FALSE FALSE FALSE FALSE FALSE FALSE FALSE FALSE FALSE FALSE FALSE FALSE FALSE FALSE FALSE FALSE FALSE FALSE FALSE FALSE FALSE FALSE FALSE FALSE FALSE FALSE FALSE FALSE FALSE FALSE FALSE
c __CPROVER_memory_leak#1 FALSE FALSE FALSE FALSE FALSE FALSE FALSE FALSE FALSE FALSE FALSE FALSE FALSE FALSE FALSE FALSE FALSE FALSE FALSE FALSE FALSE FALSE FALSE FALSE FALSE FALSE FALSE FALSE FALSE FALSE FALSE FALSE FALSE FALSE FALSE FALSE FALSE FALSE FALSE FALSE FALSE FALSE FALSE FALSE FALSE FALSE FALSE FALSE FALSE FALSE FALSE FALSE FALSE FALSE FALSE FALSE FALSE FALSE FALSE FALSE FALSE FALSE FALSE FALSE
